 vasp.5.4.4.18Apr17-6-g9f103f2a35 (build Sep 03 2019 17:22:03) complex

 INCAR:
 POTCAR:    PAW_PBE Si 05Jan2001
 POTCAR:    PAW_PBE Si 05Jan2001
   VRHFIN =Si: s2p2

   TITEL  = PAW_PBE Si 05Jan2001
   POMASS =   28.085; ZVAL   =    4.000    mass and valenz
   ENMAX  =  245.345; ENMIN  =  184.009 eV

  PAW_PBE Si 05Jan2001                  :

 POSCAR: i2a=[Si] ; Si
  positions in direct lattice
 exchange correlation table for  LEXCH =        8
   RHO(1)=    0.500       N(1)  =     2000
   RHO(2)=  100.500       N(2)  =     4000

 ion  position               nearest neighbor table
   1  0.875  0.875  0.875-   2 2.36   2 2.36   2 2.36   2 2.36
   2  0.125  0.125  0.125-   1 2.36   1 2.36   1 2.36   1 2.36

  LATTYP: Found a face centered cubic cell.
 ALAT       =     5.4437011529

  Lattice vectors:

 A1 = (   3.3335730000,   0.0000000000,   1.9246390000)
 A2 = (   1.1111910000,   3.1429240000,   1.9246390000)
 A3 = (   0.0000000000,   0.0000000000,   3.8492780000)

Analysis of symmetry for initial positions (statically):
 Subroutine PRICEL returns:
 Original cell was already a primitive cell.

 Routine SETGRP: Setting up the symmetry group for a
 face centered cubic supercell.

 Subroutine GETGRP returns: Found 48 space group operations
 (whereof 12 operations were pure point group operations)
 out of a pool of 48 trial point group operations.

The static configuration has the point symmetry D_3d.
 The point group associated with its full space group is O_h .

Analysis of symmetry for dynamics (positions and initial velocities):
 Subroutine PRICEL returns:
 Original cell was already a primitive cell.

 Routine SETGRP: Setting up the symmetry group for a
 face centered cubic supercell.

 Subroutine GETGRP returns: Found 48 space group operations
 (whereof 12 operations were pure point group operations)
 out of a pool of 48 trial point group operations.

The dynamic configuration has the point symmetry D_3d.
 The point group associated with its full space group is O_h .

 Subroutine INISYM returns: Found 48 space group operations
 (whereof 12 operations are pure point group operations),
 and found     1 'primitive' translations

 KPOINTS: k-points along high symmetry lines
  interpolating k-points between supplied coordinates
  k-points in reciprocal lattice
Space group operators:
 irot       det(A)        alpha          n_x          n_y          n_z        tau_x        tau_y        tau_z
    1     1.000000     0.000000     1.000000     0.000000     0.000000     0.000000     0.000000     0.000000
    2    -1.000000     0.000000     1.000000     0.000000     0.000000     0.000000     0.000000     0.000000
    3     1.000000   120.000000    -0.471404    -0.333333    -0.816497     0.000000     0.000000     0.000000
    4    -1.000000   120.000000    -0.471404    -0.333333    -0.816497     0.000000     0.000000     0.000000
    5     1.000000   120.000000     0.471405     0.333333     0.816496     0.000000     0.000000     0.000000
    6    -1.000000   120.000000     0.471405     0.333333     0.816496     0.000000     0.000000     0.000000
    7     1.000000   180.000000     0.288675     0.816496    -0.500000     0.000000     0.000000     0.000000
    8    -1.000000   180.000000     0.288675     0.816496    -0.500000     0.000000     0.000000     0.000000
    9     1.000000   180.000000     0.577350    -0.816496     0.000000     0.000000     0.000000     0.000000
   10    -1.000000   180.000000     0.577350    -0.816496     0.000000     0.000000     0.000000     0.000000
   11     1.000000   180.000000     0.866025    -0.000000    -0.500000     0.000000     0.000000     0.000000
   12    -1.000000   180.000000     0.866025    -0.000000    -0.500000     0.000000     0.000000     0.000000
   13     1.000000    90.000000    -0.816497    -0.577350    -0.000000     0.500000     0.000000     0.000000
   14    -1.000000    90.000000    -0.816497    -0.577350    -0.000000     0.500000     0.000000     0.000000
   15     1.000000   180.000000     0.866025    -0.000000     0.500000     0.500000     0.000000     0.000000
   16    -1.000000   180.000000     0.866025    -0.000000     0.500000     0.500000     0.000000     0.000000
   17     1.000000    90.000000     0.408248    -0.577350     0.707107     0.500000     0.000000     0.000000
   18    -1.000000    90.000000     0.408248    -0.577350     0.707107     0.500000     0.000000     0.000000
   19     1.000000   180.000000     0.816497     0.577350     0.000000     0.000000     0.000000     0.500000
   20    -1.000000   180.000000     0.816497     0.577350     0.000000     0.000000     0.000000     0.500000
   21     1.000000   120.000000     0.942809    -0.333333     0.000000     0.000000     0.000000     0.500000
   22    -1.000000   120.000000     0.942809    -0.333333     0.000000     0.000000     0.000000     0.500000
   23     1.000000   120.000000     0.000000    -1.000000     0.000000     0.000000     0.000000     0.500000
   24    -1.000000   120.000000     0.000000    -1.000000     0.000000     0.000000     0.000000     0.500000
   25     1.000000    90.000000     0.816497     0.577350    -0.000000     0.000000     0.500000     0.000000
   26    -1.000000    90.000000     0.816497     0.577350    -0.000000     0.000000     0.500000     0.000000
   27     1.000000    90.000000     0.408249    -0.577350    -0.707107     0.000000     0.500000     0.000000
   28    -1.000000    90.000000     0.408249    -0.577350    -0.707107     0.000000     0.500000     0.000000
   29     1.000000   179.999999     0.288675     0.816496     0.500000     0.000000     0.500000     0.000000
   30    -1.000000   179.999999     0.288675     0.816496     0.500000     0.000000     0.500000     0.000000
   31     1.000000   120.000000     0.000000     1.000000     0.000000     0.500000     0.000000     0.000000
   32    -1.000000   120.000000     0.000000     1.000000     0.000000     0.500000     0.000000     0.000000
   33     1.000000   120.000000     0.471404     0.333333    -0.816497     0.500000     0.000000     0.000000
   34    -1.000000   120.000000     0.471404     0.333333    -0.816497     0.500000     0.000000     0.000000
   35     1.000000   180.000000    -0.408248     0.577350     0.707107     0.500000     0.000000     0.000000
   36    -1.000000   180.000000    -0.408248     0.577350     0.707107     0.500000     0.000000     0.000000
   37     1.000000    90.000000    -0.408249     0.577350    -0.707107     0.000000     0.000000     0.500000
   38    -1.000000    90.000000    -0.408249     0.577350    -0.707107     0.000000     0.000000     0.500000
   39     1.000000   180.000000    -0.000000     0.000000     1.000000     0.000000     0.000000     0.500000
   40    -1.000000   180.000000    -0.000000     0.000000     1.000000     0.000000     0.000000     0.500000
   41     1.000000    90.000000    -0.408248     0.577350     0.707107     0.000000     0.000000     0.500000
   42    -1.000000    90.000000    -0.408248     0.577350     0.707107     0.000000     0.000000     0.500000
   43     1.000000   120.000000    -0.942809     0.333333     0.000000     0.000000     0.500000     0.000000
   44    -1.000000   120.000000    -0.942809     0.333333     0.000000     0.000000     0.500000     0.000000
   45     1.000000   180.000000    -0.408248     0.577350    -0.707107     0.000000     0.500000     0.000000
   46    -1.000000   180.000000    -0.408248     0.577350    -0.707107     0.000000     0.500000     0.000000
   47     1.000000   120.000000    -0.471405    -0.333333     0.816496     0.000000     0.500000     0.000000
   48    -1.000000   120.000000    -0.471405    -0.333333     0.816496     0.000000     0.500000     0.000000

 SYSTEM =  auto Fully inherited from the final st
 POSCAR =  i2a=[Si] ; Si

 Startparameter for this run:
   NWRITE =      2    write-flag & timer
   PREC   = normal    normal or accurate (medium, high low for compatibility)
   ISTART =      0    job   : 0-new  1-cont  2-samecut
   ICHARG =      2    charge: 1-file 2-atom 10-const
   ISPIN  =      1    spin polarized calculation?
   LNONCOLLINEAR =      F non collinear calculations
   LSORBIT =      F    spin-orbit coupling
   INIWAV =      1    electr: 0-lowe 1-rand  2-diag
   LASPH  =      F    aspherical Exc in radial PAW
   METAGGA=      F    non-selfconsistent MetaGGA calc.

 Electronic Relaxation 1
   ENCUT  =  600.0 eV  44.10 Ry    6.64 a.u.   7.69  7.69  7.69*2*pi/ulx,y,z
   ENINI  =  600.0     initial cutoff
   ENAUG  =  700.0 eV  augmentation charge cutoff
   NELM   =     60;   NELMIN=  2; NELMDL= -5     # of ELM steps
   EDIFF  = 0.1E-04   stopping-criterion for ELM
   LREAL  =      F    real-space projection
   NLSPLINE    = F    spline interpolate recip. space projectors
   LCOMPAT=      F    compatible to vasp.4.4
   GGA_COMPAT  = T    GGA compatible to vasp.4.4-vasp.4.6
   LMAXPAW     = -100 max onsite density
   LMAXMIX     =    2 max onsite mixed and CHGCAR
   VOSKOWN=      0    Vosko Wilk Nusair interpolation
   ROPT   =    0.00000
 Ionic relaxation
   EDIFFG = 0.1E-03   stopping-criterion for IOM
   NSW    =      0    number of steps for IOM
   NBLOCK =      1;   KBLOCK =      1    inner block; outer block
   IBRION =     -1    ionic relax: 0-MD 1-quasi-New 2-CG
   NFREE  =      0    steps in history (QN), initial steepest desc. (CG)
   ISIF   =      2    stress and relaxation
   IWAVPR =      0    prediction:  0-non 1-charg 2-wave 3-comb
   ISYM   =      2    0-nonsym 1-usesym 2-fastsym
   LCORR  =      T    Harris-Foulkes like correction to forces

   POTIM  = 0.5000    time-step for ionic-motion
   TEIN   =    0.0    initial temperature
   TEBEG  =    0.0;   TEEND  =   0.0 temperature during run
   SMASS  =  -3.00    Nose mass-parameter (am)
   estimated Nose-frequenzy (Omega)   =  0.10E-29 period in steps =****** mass=  -0.339E-27a.u.
   SCALEE = 1.0000    scale energy and forces
   NPACO  =    256;   APACO  = 16.0  distance and # of slots for P.C.
   PSTRESS=    0.0 pullay stress

  Mass of Ions in am
   POMASS =  28.09
  Ionic Valenz
   ZVAL   =   4.00
  Atomic Wigner-Seitz radii
  virtual crystal weights
   VCA    =   1.00
   NELECT =       8.0000    total number of electrons
   NUPDOWN=      -1.0000    fix difference up-down

 DOS related values:
   EMIN   =  10.00;   EMAX   =-10.00  energy-range for DOS
   EFERMI =   0.00
   ISMEAR =     0;   SIGMA  =   0.20  broadening in eV -4-tet -1-fermi 0-gaus

 Electronic relaxation 2 (details)
   IALGO  =     38    algorithm
   LDIAG  =      T    sub-space diagonalisation (order eigenvalues)
   LSUBROT=      F    optimize rotation matrix (better conditioning)
   TURBO    =      0    0=normal 1=particle mesh
   IRESTART =      0    0=no restart 2=restart with 2 vectors
   NREBOOT  =      0    no. of reboots
   NMIN     =      0    reboot dimension
   EREF     =   0.00    reference energy to select bands
   IMIX   =      4    mixing-type and parameters
     AMIX     =   0.40;   BMIX     =  1.00
     AMIX_MAG =   1.60;   BMIX_MAG =  1.00
     AMIN     =   0.10
     WC   =   100.;   INIMIX=   1;  MIXPRE=   1;  MAXMIX= -45

 Intra band minimization:
   WEIMIN = 0.0000     energy-eigenvalue tresh-hold
[...]
 k-point 44 :   0.1693 0.0000 0.1693  plane waves:    1335
 k-point 45 :   0.1732 0.0000 0.1732  plane waves:    1335
 k-point 46 :   0.1772 0.0000 0.1772  plane waves:    1343
 k-point 47 :   0.1811 0.0000 0.1811  plane waves:    1343
 k-point 48 :   0.1850 0.0000 0.1850  plane waves:    1343
 k-point 49 :   0.1890 0.0000 0.1890  plane waves:    1343
 k-point 50 :   0.1929 0.0000 0.1929  plane waves:    1343
 k-point 51 :   0.1969 0.0000 0.1969  plane waves:    1343
 k-point 52 :   0.2008 0.0000 0.2008  plane waves:    1343
 k-point 53 :   0.2047 0.0000 0.2047  plane waves:    1343
 k-point 54 :   0.2087 0.0000 0.2087  plane waves:    1343
 k-point 55 :   0.2126 0.0000 0.2126  plane waves:    1343
 k-point 56 :   0.2165 0.0000 0.2165  plane waves:    1343
 k-point 57 :   0.2205 0.0000 0.2205  plane waves:    1343
 k-point 58 :   0.2244 0.0000 0.2244  plane waves:    1343
 k-point 59 :   0.2283 0.0000 0.2283  plane waves:    1343
 k-point 60 :   0.2323 0.0000 0.2323  plane waves:    1343
[...]
 k-point 85 :   0.3307 0.0000 0.3307  plane waves:    1347
 k-point 86 :   0.3346 0.0000 0.3346  plane waves:    1347
 k-point 87 :   0.3386 0.0000 0.3386  plane waves:    1347
 k-point 88 :   0.3425 0.0000 0.3425  plane waves:    1347
 k-point 89 :   0.3465 0.0000 0.3465  plane waves:    1343
 k-point 90 :   0.3504 0.0000 0.3504  plane waves:    1343
 k-point 91 :   0.3543 0.0000 0.3543  plane waves:    1343
 k-point 92 :   0.3583 0.0000 0.3583  plane waves:    1347
 k-point 93 :   0.3622 0.0000 0.3622  plane waves:    1347
 k-point 94 :   0.3661 0.0000 0.3661  plane waves:    1347
 k-point 95 :   0.3701 0.0000 0.3701  plane waves:    1347
 k-point 96 :   0.3740 0.0000 0.3740  plane waves:    1359
 k-point 97 :   0.3780 0.0000 0.3780  plane waves:    1359
 k-point 98 :   0.3819 0.0000 0.3819  plane waves:    1351
 k-point 99 :   0.3858 0.0000 0.3858  plane waves:    1351
 k-point ** :   0.3898 0.0000 0.3898  plane waves:    1351
 k-point ** :   0.3937 0.0000 0.3937  plane waves:    1351
 k-point ** :   0.3976 0.0000 0.3976  plane waves:    1351
 k-point ** :   0.4016 0.0000 0.4016  plane waves:    1347
 k-point ** :   0.4055 0.0000 0.4055  plane waves:    1347
 k-point ** :   0.4094 0.0000 0.4094  plane waves:    1347
 k-point ** :   0.4134 0.0000 0.4134  plane waves:    1347
 k-point ** :   0.4173 0.0000 0.4173  plane waves:    1347
 k-point ** :   0.4213 0.0000 0.4213  plane waves:    1347
 k-point ** :   0.4252 0.0000 0.4252  plane waves:    1339
 k-point ** :   0.4291 0.0000 0.4291  plane waves:    1339
 k-point ** :   0.4331 0.0000 0.4331  plane waves:    1339
 k-point ** :   0.4370 0.0000 0.4370  plane waves:    1338
 k-point ** :   0.4409 0.0000 0.4409  plane waves:    1338
 k-point ** :   0.4449 0.0000 0.4449  plane waves:    1338
 k-point ** :   0.4488 0.0000 0.4488  plane waves:    1338
 k-point ** :   0.4528 0.0000 0.4528  plane waves:    1338
 k-point ** :   0.4567 0.0000 0.4567  plane waves:    1338
 k-point ** :   0.4606 0.0000 0.4606  plane waves:    1346
 k-point ** :   0.4646 0.0000 0.4646  plane waves:    1346
 k-point ** :   0.4685 0.0000 0.4685  plane waves:    1350
 k-point ** :   0.4724 0.0000 0.4724  plane waves:    1350
 k-point ** :   0.4764 0.0000 0.4764  plane waves:    1350
 k-point ** :   0.4803 0.0000 0.4803  plane waves:    1350
 k-point ** :   0.4843 0.0000 0.4843  plane waves:    1350
 k-point ** :   0.4882 0.0000 0.4882  plane waves:    1350
 k-point ** :   0.4921 0.0000 0.4921  plane waves:    1358
 k-point ** :   0.4961 0.0000 0.4961  plane waves:    1362
 k-point ** :   0.5000 0.0000 0.5000  plane waves:    1362
 k-point ** :   0.5000 0.0000 0.5000  plane waves:    1362
 k-point ** :   0.5000 0.0020 0.5020  plane waves:    1362
 k-point ** :   0.5000 0.0039 0.5039  plane waves:    1362
 k-point ** :   0.5000 0.0059 0.5059  plane waves:    1358
 k-point ** :   0.5000 0.0079 0.5079  plane waves:    1358
 k-point ** :   0.5000 0.0098 0.5098  plane waves:    1358
 k-point ** :   0.5000 0.0118 0.5118  plane waves:    1358
 k-point ** :   0.5000 0.0138 0.5138  plane waves:    1358
 k-point ** :   0.5000 0.0157 0.5157  plane waves:    1358
 k-point ** :   0.5000 0.0177 0.5177  plane waves:    1354
 k-point ** :   0.5000 0.0197 0.5197  plane waves:    1354
 k-point ** :   0.5000 0.0217 0.5217  plane waves:    1354
 k-point ** :   0.5000 0.0236 0.5236  plane waves:    1354
 k-point ** :   0.5000 0.0256 0.5256  plane waves:    1354
 k-point ** :   0.5000 0.0276 0.5276  plane waves:    1354
 k-point ** :   0.5000 0.0295 0.5295  plane waves:    1354
 k-point ** :   0.5000 0.0315 0.5315  plane waves:    1350
 k-point ** :   0.5000 0.0335 0.5335  plane waves:    1350
 k-point ** :   0.5000 0.0354 0.5354  plane waves:    1350
 k-point ** :   0.5000 0.0374 0.5374  plane waves:    1350
 k-point ** :   0.5000 0.0394 0.5394  plane waves:    1346
 k-point ** :   0.5000 0.0413 0.5413  plane waves:    1346
 k-point ** :   0.5000 0.0433 0.5433  plane waves:    1346
 k-point ** :   0.5000 0.0453 0.5453  plane waves:    1346
 k-point ** :   0.5000 0.0472 0.5472  plane waves:    1346
 k-point ** :   0.5000 0.0492 0.5492  plane waves:    1346
 k-point ** :   0.5000 0.0512 0.5512  plane waves:    1340
 k-point ** :   0.5000 0.0531 0.5531  plane waves:    1340
 k-point ** :   0.5000 0.0551 0.5551  plane waves:    1340
 k-point ** :   0.5000 0.0571 0.5571  plane waves:    1340
 k-point ** :   0.5000 0.0591 0.5591  plane waves:    1340
[...]
 k-point ** :   0.5138 0.0276 0.5138  plane waves:    1352
 k-point ** :   0.5128 0.0256 0.5128  plane waves:    1352
 k-point ** :   0.5118 0.0236 0.5118  plane waves:    1352
 k-point ** :   0.5108 0.0217 0.5108  plane waves:    1352
 k-point ** :   0.5098 0.0197 0.5098  plane waves:    1352
 k-point ** :   0.5089 0.0177 0.5089  plane waves:    1352
 k-point ** :   0.5079 0.0157 0.5079  plane waves:    1354
 k-point ** :   0.5069 0.0138 0.5069  plane waves:    1354
 k-point ** :   0.5059 0.0118 0.5059  plane waves:    1358
 k-point ** :   0.5049 0.0098 0.5049  plane waves:    1362
 k-point ** :   0.5039 0.0079 0.5039  plane waves:    1362
 k-point ** :   0.5030 0.0059 0.5030  plane waves:    1362
 k-point ** :   0.5020 0.0039 0.5020  plane waves:    1362
 k-point ** :   0.5010 0.0020 0.5010  plane waves:    1362
 k-point ** :   0.5000 0.0000 0.5000  plane waves:    1362

 maximum number of plane-waves:      1371
 maximum index in each direction:
   IXMAX=    7   IYMAX=    7   IZMAX=    7
   IXMIN=   -8   IYMIN=   -8   IZMIN=   -8

 Broyden mixing: mesh for mixing (old mesh)
   NGX = 15   NGY = 15   NGZ = 15
  (NGX  = 48   NGY  = 48   NGZ  = 48)
  gives a total of   3375 points

 initial charge density was supplied:
 charge density of overlapping atoms calculated
 number of electron       8.0000000 magnetization
 keeping initial charge density in first step

 Maximum index for augmentation-charges        11057 (set IRDMAX)

 First call to EWALD:  gamma=   0.517
 Maximum number of real-space cells 3x 3x 3
 Maximum number of reciprocal cells 3x 3x 3

--------------------------------------- Iteration      1(   1)  ---------------------------------------

 eigenvalue-minimisations  : 33792
 total energy-change (2. order) : 0.5653724E+01  (-0.3377309E+03)
 number of electron       8.0000000 magnetization
 augmentation part        8.0000000 magnetization

 Free energy of the ion-electron system (eV)
  alpha Z        PSCENC =         3.33880741
  Ewald energy   TEWEN  =      -227.98820643
  -Hartree energ DENC   =       -11.11484531
  -exchange      EXHF   =         0.00000000
  -V(xc)+E(xc)   XCENC  =       -18.63153637
  PAW double counting   =       176.24759923     -141.06103558
  entropy T*S    EENTRO =        -0.01228809
  eigenvalues    EBANDS =        18.74211041
  atomic energy  EATOM  =       206.13311910
  Solvation  Ediel_sol  =         0.00000000
  free energy    TOTEN  =         5.65372437 eV

  energy without entropy =        5.66601246  energy(sigma->0) =        5.65986841

[...]

 eigenvalue-minimisations  : 44140
 total energy-change (2. order) :-0.1672482E+02  (-0.1591863E+02)
 number of electron       8.0000000 magnetization
 augmentation part        8.0000000 magnetization

[...]

 Broyden mixing:
  rms(total) = 0.48710E+00    rms(broyden)= 0.48710E+00
  rms(prec ) = 0.95070E+00
  weight for this iteration     100.00

[...]

 eigenvalues of (default mixing * dielectric matrix)
  average eigenvalue GAMMA=   2.5450
  2.5450

[...]

 eigenvalue-minimisations  : 40132
 total energy-change (2. order) : 0.5527989E-01  (-0.1220150E-01)
 number of electron       7.9999999 magnetization
 augmentation part       -0.4538535 magnetization

[...]

 Broyden mixing:
  rms(total) = 0.52933E-03    rms(broyden)= 0.52933E-03
  rms(prec ) = 0.10424E-02
  weight for this iteration     100.00

 eigenvalues of (default mixing * dielectric matrix)
  average eigenvalue GAMMA=   1.9655
  2.9591  2.5724  2.0035  0.9526  1.3401

[...]

--------------------------------------- Iteration      1(  11)  ---------------------------------------

 eigenvalue-minimisations  : 29288
 total energy-change (2. order) :-0.1195623E-05  (-0.2674060E-06)
 number of electron       7.9999999 magnetization
 augmentation part       -0.4548553 magnetization

 Free energy of the ion-electron system (eV)
  alpha Z        PSCENC =         3.33880741
  Ewald energy   TEWEN  =      -227.98820643
  -Hartree energ DENC   =       -14.98837338
  -exchange      EXHF   =         0.00000000
  -V(xc)+E(xc)   XCENC  =       -17.99448380
  PAW double counting   =       858.34258414     -823.36922531
  entropy T*S    EENTRO =        -0.00087446
  eigenvalues    EBANDS =         5.09629604
  atomic energy  EATOM  =       206.13311910
  Solvation  Ediel_sol  =         0.00000000
  free energy    TOTEN  =       -11.43035669 eV

  energy without entropy =      -11.42948224  energy(sigma->0) =      -11.42991946

 average (electrostatic) potential at core
  the test charge radii are     0.9892
  (the norm of the test charge is              1.0000)
       1 -83.3602       2 -83.3602

 E-fermi :   6.0712     XC(G=0):  -9.3828     alpha+bet :-11.8943

 k-point     1 :       0.0000    0.0000    0.0000
  band No.  band energies     occupation
      1      -6.1578      2.00000
      2       5.7488      1.97734
      3       5.7488      1.97734
      4       5.7488      1.97734
      5       8.3148      0.00000
      6       8.3148      0.00000
      7       8.3148      0.00000
      8       9.0398      0.00000
      9      13.4669      0.00000
     10      13.4669      0.00000
     11      13.6848      0.00000
     12      16.9798      0.00000

[...]

 k-point  1408 :       0.5000    0.0000    0.5000
  band No.  band energies     occupation
      1      -2.0402      2.00000
      2      -2.0402      2.00000
      3       2.9201      2.00000
      4       2.9201      2.00000
      5       6.4776      0.00405
      6       6.4776      0.00405
      7      15.8057      0.00000
      8      15.8057      0.00000
      9      16.7010      0.00000
     10      16.7010      0.00000
     11      18.2462      0.00000
     12      18.2463      0.00000

 soft charge-density along one line, spin component           1
         0         1         2         3         4         5         6         7         8         9
x     8.4549    0.0000    2.0438    0.0000    0.3647    0.0000    0.0906    0.0000    0.0039    0.0000
x    -0.0027   -0.0000   -0.0009   -0.0000    0.0000   -0.0000    0.0000    0.0000    0.0000   -0.0000
x    -0.0000   -0.0000   -0.0000   -0.0000    0.0000    0.0000
y     8.4549    0.0000    2.0438    0.0000    0.3647    0.0000    0.0906    0.0000    0.0039    0.0000
y    -0.0027   -0.0000   -0.0009   -0.0000    0.0000   -0.0000    0.0000    0.0000    0.0000   -0.0000
y    -0.0000   -0.0000   -0.0000   -0.0000    0.0000    0.0000
z     8.4549    0.0000    2.0438    0.0000    0.3647    0.0000    0.0906    0.0000    0.0039    0.0000
z    -0.0027   -0.0000   -0.0009   -0.0000    0.0000   -0.0000    0.0000    0.0000    0.0000   -0.0000
z    -0.0000   -0.0000   -0.0000   -0.0000    0.0000    0.0000
 total charge-density along one line
x     8.0000    0.0000    1.7691    0.0000    0.3648    0.0000    0.1574    0.0000    0.0223   -0.0000
x    -0.0038   -0.0000   -0.0009   -0.0000   -0.0003   -0.0000    0.0001   -0.0000    0.0001   -0.0000
x    -0.0000   -0.0000    0.0000    0.0000   -0.0000    0.0000    0.0000    0.0000    0.0000    0.0000
x     0.0000    0.0000   -0.0000   -0.0000   -0.0000   -0.0000    0.0000    0.0000   -0.0000   -0.0000
x     0.0000   -0.0000   -0.0000    0.0000   -0.0000    0.0000   -0.0000   -0.0000    0.0000    0.0000
y     8.0000    0.0000    1.7691    0.0000    0.3648    0.0000    0.1574    0.0000    0.0223   -0.0000
y    -0.0038   -0.0000   -0.0009   -0.0000   -0.0003   -0.0000    0.0001   -0.0000    0.0001    0.0000
y    -0.0000    0.0000    0.0000   -0.0000   -0.0000    0.0000    0.0000   -0.0000    0.0000   -0.0000
y     0.0000    0.0000   -0.0000   -0.0000   -0.0000   -0.0000    0.0000   -0.0000   -0.0000   -0.0000
y     0.0000    0.0000   -0.0000    0.0000   -0.0000    0.0000   -0.0000    0.0000    0.0000   -0.0000
z     8.0000    0.0000    1.7691    0.0000    0.3648    0.0000    0.1574    0.0000    0.0223    0.0000
z    -0.0038   -0.0000   -0.0009    0.0000   -0.0003   -0.0000    0.0001    0.0000    0.0001    0.0000
z    -0.0000    0.0000    0.0000   -0.0000   -0.0000    0.0000    0.0000   -0.0000    0.0000   -0.0000
z     0.0000    0.0000   -0.0000    0.0000   -0.0000   -0.0000    0.0000    0.0000   -0.0000    0.0000
z     0.0000   -0.0000   -0.0000   -0.0000   -0.0000    0.0000   -0.0000    0.0000    0.0000   -0.0000

------------------------ aborting loop because EDIFF is reached ----------------------------------------

 total charge

# of ion       s       p       d       tot
    1        0.745   0.941   0.000   1.686
    2        0.745   0.941   0.000   1.686
tot          1.490   1.882   0.000   3.372

  FORCE on cell =-STRESS in cart. coord.  units (eV):
  Direction    XX          YY          ZZ          XY          YZ          ZX
  Alpha Z     3.33881     3.33881     3.33881
  Ewald     -75.99608   -75.99616   -75.99607     0.00001    -0.00000     0.00000
  Hartree     4.99683     4.99683     4.99683     0.00000     0.00000     0.00000
  E(xc)     -25.30780   -25.30780   -25.30780    -0.00000    -0.00000    -0.00000
  Local     -29.19506   -29.19504   -29.19504    -0.00000     0.00001     0.00001
  n-local    78.33670    77.88617    75.75538    -0.98502     0.97791    -2.40760
  augment   -11.56105   -11.56105   -11.56106    -0.00000    -0.00001    -0.00001
  Kinetic    58.29549    56.77341    53.26422    -0.27059    -1.17565    -2.16577
  Fock        0.00000     0.00000     0.00000     0.00000     0.00000     0.00000
  Total      -0.28725    -0.28725    -0.28725     0.00000     0.00000    -0.00000
  in kB     -11.41151   -11.41152   -11.41151     0.00000     0.00000    -0.00000

 VOLUME and BASIS-vectors are now :
  energy-cutoff  :      600.00
  volume of cell :       40.33
      direct lattice vectors                 reciprocal lattice vectors
     3.333573000  0.000000000  1.924639000     0.299978432 -0.106058350  0.000000000
     1.111191000  3.142924000  1.924639000     0.000000000  0.318175050  0.000000000
     0.000000000  0.000000000  3.849278000    -0.149989216 -0.106058350  0.259788979

  length of vectors
     3.849278403  3.849279412  3.849278000     0.318175161  0.318175050  0.318175190

 FORCES acting on ions
    electron-ion (+dipol)            ewald-force                    non-local-force                 convergence-correction
   0.539E-05 0.246E-04 0.301E-06   -.892E-05 -.418E-04 -.429E-15   0.114E-15 -.627E-16 -.117E-17   -.800E-09 0.413E-10 -.165E-08
   -.539E-05 -.246E-04 -.301E-06   0.892E-05 0.418E-04 0.408E-15   -.904E-16 0.489E-16 -.209E-15   0.800E-09 -.413E-10 0.165E-08
   -.672E-14 0.655E-14 -.163E-13   -.341E-15 0.468E-16 -.212E-16   0.236E-16 -.138E-16 -.210E-15   -.200E-14 -.119E-14 -.147E-14

 POSITION                                       TOTAL-FORCE (eV/Angst)
      3.88917      2.75006      6.73624        -0.000000     -0.000000     -0.000000
      0.55560      0.39287      0.96232         0.000000      0.000000      0.000000
    total drift:                               -0.000000      0.000000     -0.000000

  FREE ENERGIE OF THE ION-ELECTRON SYSTEM (eV)
  free  energy   TOTEN  =       -11.43035669 eV

  energy  without entropy=      -11.42948224  energy(sigma->0) =      -11.42991946

 writing wavefunctions

 total charge

# of ion       s       p       d       tot
    1        0.745   0.941   0.000   1.686
    2        0.745   0.941   0.000   1.686
tot          1.490   1.882   0.000   3.372