 vasp.5.4.4.18Apr17-6-g9f103f2a35 (build Sep 03 2019 17:22:03) complex

 INCAR:
 POTCAR:    PAW_PBE Si 05Jan2001
 POTCAR:    PAW_PBE Si 05Jan2001
   VRHFIN =Si: s2p2

   TITEL  = PAW_PBE Si 05Jan2001
   POMASS =   28.085; ZVAL   =    4.000    mass and valenz
   ENMAX  =  245.345; ENMIN  =  184.009 eV

  PAW_PBE Si 05Jan2001                  :

 POSCAR: i2a=[Si] ; Si
  positions in direct lattice
 exchange correlation table for  LEXCH =        8
   RHO(1)=    0.500       N(1)  =     2000
   RHO(2)=  100.500       N(2)  =     4000

 ion  position               nearest neighbor table
   1  0.875  0.875  0.875-   2 2.36   2 2.36   2 2.36   2 2.36
   2  0.125  0.125  0.125-   1 2.36   1 2.36   1 2.36   1 2.36

  LATTYP: Found a face centered cubic cell.
 ALAT       =     5.4437011529

  Lattice vectors:

 A1 = (   3.3335730000,   0.0000000000,   1.9246390000)
 A2 = (   1.1111910000,   3.1429240000,   1.9246390000)
 A3 = (   0.0000000000,   0.0000000000,   3.8492780000)

Analysis of symmetry for initial positions (statically):
 Subroutine PRICEL returns:
 Original cell was already a primitive cell.

 Routine SETGRP: Setting up the symmetry group for a
 face centered cubic supercell.

 Subroutine GETGRP returns: Found 48 space group operations
 (whereof 12 operations were pure point group operations)
 out of a pool of 48 trial point group operations.

The static configuration has the point symmetry D_3d.
 The point group associated with its full space group is O_h .

Analysis of symmetry for dynamics (positions and initial velocities):
 Subroutine PRICEL returns:
 Original cell was already a primitive cell.

 Routine SETGRP: Setting up the symmetry group for a
 face centered cubic supercell.

 Subroutine GETGRP returns: Found 48 space group operations
 (whereof 12 operations were pure point group operations)
 out of a pool of 48 trial point group operations.

The dynamic configuration has the point symmetry D_3d.
 The point group associated with its full space group is O_h .

 Subroutine INISYM returns: Found 48 space group operations
 (whereof 12 operations are pure point group operations),
 and found     1 'primitive' translations

 KPOINTS: Explicit k-point list
  k-points in reciprocal lattice
Space group operators:
 irot       det(A)        alpha          n_x          n_y          n_z        tau_x        tau_y        tau_z
    1     1.000000     0.000000     1.000000     0.000000     0.000000     0.000000     0.000000     0.000000
    2    -1.000000     0.000000     1.000000     0.000000     0.000000     0.000000     0.000000     0.000000
    3     1.000000   120.000000    -0.471404    -0.333333    -0.816497     0.000000     0.000000     0.000000
    4    -1.000000   120.000000    -0.471404    -0.333333    -0.816497     0.000000     0.000000     0.000000
    5     1.000000   120.000000     0.471405     0.333333     0.816496     0.000000     0.000000     0.000000
    6    -1.000000   120.000000     0.471405     0.333333     0.816496     0.000000     0.000000     0.000000
    7     1.000000   180.000000     0.288675     0.816496    -0.500000     0.000000     0.000000     0.000000
    8    -1.000000   180.000000     0.288675     0.816496    -0.500000     0.000000     0.000000     0.000000
    9     1.000000   180.000000     0.577350    -0.816496     0.000000     0.000000     0.000000     0.000000
   10    -1.000000   180.000000     0.577350    -0.816496     0.000000     0.000000     0.000000     0.000000
   11     1.000000   180.000000     0.866025    -0.000000    -0.500000     0.000000     0.000000     0.000000
   12    -1.000000   180.000000     0.866025    -0.000000    -0.500000     0.000000     0.000000     0.000000
   13     1.000000    90.000000    -0.816497    -0.577350    -0.000000     0.500000     0.000000     0.000000
   14    -1.000000    90.000000    -0.816497    -0.577350    -0.000000     0.500000     0.000000     0.000000
   15     1.000000   180.000000     0.866025    -0.000000     0.500000     0.500000     0.000000     0.000000
   16    -1.000000   180.000000     0.866025    -0.000000     0.500000     0.500000     0.000000     0.000000
   17     1.000000    90.000000     0.408248    -0.577350     0.707107     0.500000     0.000000     0.000000
   18    -1.000000    90.000000     0.408248    -0.577350     0.707107     0.500000     0.000000     0.000000
   19     1.000000   180.000000     0.816497     0.577350     0.000000     0.000000     0.000000     0.500000
   20    -1.000000   180.000000     0.816497     0.577350     0.000000     0.000000     0.000000     0.500000
   21     1.000000   120.000000     0.942809    -0.333333     0.000000     0.000000     0.000000     0.500000
   22    -1.000000   120.000000     0.942809    -0.333333     0.000000     0.000000     0.000000     0.500000
   23     1.000000   120.000000     0.000000    -1.000000     0.000000     0.000000     0.000000     0.500000
   24    -1.000000   120.000000     0.000000    -1.000000     0.000000     0.000000     0.000000     0.500000
   25     1.000000    90.000000     0.816497     0.577350    -0.000000     0.000000     0.500000     0.000000
   26    -1.000000    90.000000     0.816497     0.577350    -0.000000     0.000000     0.500000     0.000000
   27     1.000000    90.000000     0.408249    -0.577350    -0.707107     0.000000     0.500000     0.000000
   28    -1.000000    90.000000     0.408249    -0.577350    -0.707107     0.000000     0.500000     0.000000
   29     1.000000   179.999999     0.288675     0.816496     0.500000     0.000000     0.500000     0.000000
   30    -1.000000   179.999999     0.288675     0.816496     0.500000     0.000000     0.500000     0.000000
   31     1.000000   120.000000     0.000000     1.000000     0.000000     0.500000     0.000000     0.000000
   32    -1.000000   120.000000     0.000000     1.000000     0.000000     0.500000     0.000000     0.000000
   33     1.000000   120.000000     0.471404     0.333333    -0.816497     0.500000     0.000000     0.000000
   34    -1.000000   120.000000     0.471404     0.333333    -0.816497     0.500000     0.000000     0.000000
   35     1.000000   180.000000    -0.408248     0.577350     0.707107     0.500000     0.000000     0.000000
   36    -1.000000   180.000000    -0.408248     0.577350     0.707107     0.500000     0.000000     0.000000
   37     1.000000    90.000000    -0.408249     0.577350    -0.707107     0.000000     0.000000     0.500000
   38    -1.000000    90.000000    -0.408249     0.577350    -0.707107     0.000000     0.000000     0.500000
   39     1.000000   180.000000    -0.000000     0.000000     1.000000     0.000000     0.000000     0.500000
   40    -1.000000   180.000000    -0.000000     0.000000     1.000000     0.000000     0.000000     0.500000
   41     1.000000    90.000000    -0.408248     0.577350     0.707107     0.000000     0.000000     0.500000
   42    -1.000000    90.000000    -0.408248     0.577350     0.707107     0.000000     0.000000     0.500000
   43     1.000000   120.000000    -0.942809     0.333333     0.000000     0.000000     0.500000     0.000000
   44    -1.000000   120.000000    -0.942809     0.333333     0.000000     0.000000     0.500000     0.000000
   45     1.000000   180.000000    -0.408248     0.577350    -0.707107     0.000000     0.500000     0.000000
   46    -1.000000   180.000000    -0.408248     0.577350    -0.707107     0.000000     0.500000     0.000000
   47     1.000000   120.000000    -0.471405    -0.333333     0.816496     0.000000     0.500000     0.000000
   48    -1.000000   120.000000    -0.471405    -0.333333     0.816496     0.000000     0.500000     0.000000

 SYSTEM =  auto Fully inherited from the final st
 POSCAR =  i2a=[Si] ; Si

 Startparameter for this run:
   NWRITE =      2    write-flag & timer
   PREC   = normal    normal or accurate (medium, high low for compatibility)
   ISTART =      0    job   : 0-new  1-cont  2-samecut
   ICHARG =      2    charge: 1-file 2-atom 10-const
   ISPIN  =      1    spin polarized calculation?
   LNONCOLLINEAR =      F non collinear calculations
   LSORBIT =      F    spin-orbit coupling
   INIWAV =      1    electr: 0-lowe 1-rand  2-diag
   LASPH  =      F    aspherical Exc in radial PAW
   METAGGA=      F    non-selfconsistent MetaGGA calc.

 Electronic Relaxation 1
   ENCUT  =  600.0 eV  44.10 Ry    6.64 a.u.   7.69  7.69  7.69*2*pi/ulx,y,z
   ENINI  =  600.0     initial cutoff
   ENAUG  =  700.0 eV  augmentation charge cutoff
   NELM   =     60;   NELMIN=  2; NELMDL= -5     # of ELM steps
   EDIFF  = 0.1E-04   stopping-criterion for ELM
   LREAL  =      F    real-space projection
   NLSPLINE    = F    spline interpolate recip. space projectors
   LCOMPAT=      F    compatible to vasp.4.4
   GGA_COMPAT  = T    GGA compatible to vasp.4.4-vasp.4.6
   LMAXPAW     = -100 max onsite density
   LMAXMIX     =    2 max onsite mixed and CHGCAR
   VOSKOWN=      0    Vosko Wilk Nusair interpolation
   ROPT   =    0.00000
 Ionic relaxation
   EDIFFG = 0.1E-03   stopping-criterion for IOM
   NSW    =      0    number of steps for IOM
   NBLOCK =      1;   KBLOCK =      1    inner block; outer block
   IBRION =     -1    ionic relax: 0-MD 1-quasi-New 2-CG
   NFREE  =      0    steps in history (QN), initial steepest desc. (CG)
   ISIF   =      2    stress and relaxation
   IWAVPR =      0    prediction:  0-non 1-charg 2-wave 3-comb
   ISYM   =      2    0-nonsym 1-usesym 2-fastsym
   LCORR  =      T    Harris-Foulkes like correction to forces

   POTIM  = 0.5000    time-step for ionic-motion
   TEIN   =    0.0    initial temperature
   TEBEG  =    0.0;   TEEND  =   0.0 temperature during run
   SMASS  =  -3.00    Nose mass-parameter (am)
   estimated Nose-frequenzy (Omega)   =  0.10E-29 period in steps =****** mass=  -0.339E-27a.u.
   SCALEE = 1.0000    scale energy and forces
   NPACO  =    256;   APACO  = 16.0  distance and # of slots for P.C.
   PSTRESS=    0.0 pullay stress

  Mass of Ions in am
   POMASS =  28.09
  Ionic Valenz
   ZVAL   =   4.00
  Atomic Wigner-Seitz radii
  virtual crystal weights
   VCA    =   1.00
   NELECT =       8.0000    total number of electrons
   NUPDOWN=      -1.0000    fix difference up-down

 DOS related values:
   EMIN   =  10.00;   EMAX   =-10.00  energy-range for DOS
   EFERMI =   0.00
   ISMEAR =     0;   SIGMA  =   0.20  broadening in eV -4-tet -1-fermi 0-gaus

 Electronic relaxation 2 (details)
   IALGO  =     38    algorithm
   LDIAG  =      T    sub-space diagonalisation (order eigenvalues)
   LSUBROT=      F    optimize rotation matrix (better conditioning)
   TURBO    =      0    0=normal 1=particle mesh
   IRESTART =      0    0=no restart 2=restart with 2 vectors
   NREBOOT  =      0    no. of reboots
   NMIN     =      0    reboot dimension
   EREF     =   0.00    reference energy to select bands
   IMIX   =      4    mixing-type and parameters
     AMIX     =   0.40;   BMIX     =  1.00
     AMIX_MAG =   1.60;   BMIX_MAG =  1.00
     AMIN     =   0.10
     WC   =   100.;   INIMIX=   1;  MIXPRE=   1;  MAXMIX= -45

 Intra band minimization:
   WEIMIN = 0.0000     energy-eigenvalue tresh-hold
   EBREAK =  0.21E-06  absolut break condition
[...]
   LELF         =      F    write electronic localiz. function (ELF)
   LORBIT       =     11    0 simple, 1 ext, 2 COOP (PROOUT), +10 PAW based schemes

 Dipole corrections
   LMONO  =      F    monopole corrections only (constant potential shift)
   LDIPOL =      F    correct potential (dipole corrections)
   IDIPOL =      0    1-x, 2-y, 3-z, 4-all directions
   EPSILON=  1.0000000 bulk dielectric constant

 Exchange correlation treatment:
   GGA     =    --    GGA type
   VOSKOWN=      0    Vosko Wilk Nusair interpolation
   LHFCALC =     F    Hartree Fock is set to
   LHFONE  =     F    Hartree Fock one center treatment
   AEXX    =    0.0000 exact exchange contribution

 Linear response parameters
   LEPSILON=     F    determine dielectric tensor
   LRPA    =     F    only Hartree local field effects (RPA)
   LNABLA  =     F    use nabla operator in PAW spheres
   LVEL    =     F    velocity operator in full k-point grid
   LINTERFAST=   F  fast interpolation
   KINTER  =     0    interpolate to denser k-point grid
   CSHIFT  =0.1000    complex shift for real part using Kramers Kronig
   OMEGAMAX=  -1.0    maximum frequency
   DEG_THRESHOLD= 0.2000000E-02 threshold for treating states as degnerate
   RTIME   =   -0.100 relaxation time in fs
  (WPLASMAI=    0.000 imaginary part of plasma frequency in eV, 0.658/RTIME)
   DFIELD  = 0.0000000 0.0000000 0.0000000 field for delta impulse in time

 Orbital magnetization related:
   ORBITALMAG=     F  switch on orbital magnetization
   LCHIMAG   =     F  perturbation theory with respect to B field
   DQ        =  0.001000  dq finite difference perturbation B field
   LLRAUG    =     F  two centre corrections for induced B field

 Static calculation
 charge density and potential will be updated during run
 non-spin polarized calculation
 Variant of blocked Davidson
 Davidson routine will perform the subspace rotation
 perform sub-space diagonalisation
    after iterative eigenvector-optimisation
 modified Broyden-mixing scheme, WC =      100.0
 initial mixing is a Kerker type mixing with AMIX =  0.4000 and BMIX =      1.0000
 Hartree-type preconditioning will be used
 using additional bands            8
 reciprocal scheme for non local part
 use partial core corrections
 calculate Harris-corrections to forces
   (improved forces if not selfconsistent)
 use gradient corrections
 use of overlap-Matrix (Vanderbilt PP)
 Gauss-broadening in eV      SIGMA  =   0.20

  energy-cutoff  :      600.00
  volume of cell :       40.33
      direct lattice vectors                 reciprocal lattice vectors
     3.333573000  0.000000000  1.924639000     0.299978432 -0.106058350  0.000000000
     1.111191000  3.142924000  1.924639000     0.000000000  0.318175050  0.000000000
     0.000000000  0.000000000  3.849278000    -0.149989216 -0.106058350  0.259788979

  length of vectors
     3.849278403  3.849279412  3.849278000     0.318175161  0.318175050  0.318175190

 k-points in units of 2pi/SCALE and weight: Explicit k-point list
   0.04724660 -0.02672670  0.17847503       0.053
   0.04424682 -0.02566612  0.17847503       0.053
   0.05024639 -0.02778729  0.17847503       0.053
   0.04724660 -0.02990845  0.17847503       0.053
   0.04724660 -0.02354495  0.17847503       0.053
   0.04874650 -0.02566612  0.17587714       0.053
   0.04574671 -0.02778729  0.18107292       0.053
   0.04424682 -0.02884787  0.17847503       0.053
   0.05024639 -0.02460554  0.17847503       0.053
   0.05024639 -0.03096904  0.17847503       0.053
   0.04424682 -0.02248437  0.17847503       0.053
   0.04574671 -0.02460554  0.17587714       0.053
   0.04874650 -0.02884787  0.18107292       0.053
   0.05174628 -0.02672670  0.17587714       0.053
   0.04274693 -0.02672670  0.18107292       0.053
   0.04874650 -0.02884787  0.17587714       0.053
   0.04574671 -0.02460554  0.18107292       0.053
   0.04874650 -0.02248437  0.17587714       0.053
   0.04574671 -0.03096904  0.18107292       0.053

 k-points in reciprocal lattice and weights: Explicit k-point list
   0.50100000  0.31200000  0.68700000       0.053
   0.49100000  0.31200000  0.68700000       0.053
   0.51100000  0.31200000  0.68700000       0.053
   0.50100000  0.30200000  0.68700000       0.053
   0.50100000  0.32200000  0.68700000       0.053
   0.50100000  0.31200000  0.67700000       0.053
   0.50100000  0.31200000  0.69700000       0.053
   0.49100000  0.30200000  0.68700000       0.053
   0.51100000  0.32200000  0.68700000       0.053
   0.51100000  0.30200000  0.68700000       0.053
   0.49100000  0.32200000  0.68700000       0.053
   0.49100000  0.31200000  0.67700000       0.053
   0.51100000  0.31200000  0.69700000       0.053
   0.51100000  0.31200000  0.67700000       0.053
   0.49100000  0.31200000  0.69700000       0.053
   0.50100000  0.30200000  0.67700000       0.053
   0.50100000  0.32200000  0.69700000       0.053
   0.50100000  0.32200000  0.67700000       0.053
   0.50100000  0.30200000  0.69700000       0.053

 position of ions in fractional coordinates (direct lattice)
   0.87500000  0.87500000  0.87500000
   0.12500000  0.12500000  0.12500000

 position of ions in cartesian coordinates  (Angst):
   3.88916850  2.75005850  6.73623650
   0.55559550  0.39286550  0.96231950

 k-point  1 :   0.5010 0.3120 0.6870  plane waves:    1342
 k-point  2 :   0.4910 0.3120 0.6870  plane waves:    1341
 k-point  3 :   0.5110 0.3120 0.6870  plane waves:    1344
 k-point  4 :   0.5010 0.3020 0.6870  plane waves:    1341
 k-point  5 :   0.5010 0.3220 0.6870  plane waves:    1340
 k-point  6 :   0.5010 0.3120 0.6770  plane waves:    1341
 k-point  7 :   0.5010 0.3120 0.6970  plane waves:    1341
 k-point  8 :   0.4910 0.3020 0.6870  plane waves:    1341
 k-point  9 :   0.5110 0.3220 0.6870  plane waves:    1341
 k-point 10 :   0.5110 0.3020 0.6870  plane waves:    1344
 k-point 11 :   0.4910 0.3220 0.6870  plane waves:    1344
 k-point 12 :   0.4910 0.3120 0.6770  plane waves:    1340
 k-point 13 :   0.5110 0.3120 0.6970  plane waves:    1342
 k-point 14 :   0.5110 0.3120 0.6770  plane waves:    1345
 k-point 15 :   0.4910 0.3120 0.6970  plane waves:    1342
 k-point 16 :   0.5010 0.3020 0.6770  plane waves:    1342
 k-point 17 :   0.5010 0.3220 0.6970  plane waves:    1341
 k-point 18 :   0.5010 0.3220 0.6770  plane waves:    1344
 k-point 19 :   0.5010 0.3020 0.6970  plane waves:    1344

 maximum number of plane-waves:      1345
 maximum index in each direction:
   IXMAX=    7   IYMAX=    7   IZMAX=    6
   IXMIN=   -8   IYMIN=   -7   IZMIN=   -8

 Broyden mixing: mesh for mixing (old mesh)
   NGX = 15   NGY = 15   NGZ = 15
  (NGX  = 48   NGY  = 48   NGZ  = 48)
  gives a total of   3375 points

 initial charge density was supplied:
 charge density of overlapping atoms calculated
 number of electron       8.0000000 magnetization
 keeping initial charge density in first step

 Maximum index for augmentation-charges        11057 (set IRDMAX)

 First call to EWALD:  gamma=   0.517
 Maximum number of real-space cells 3x 3x 3
 Maximum number of reciprocal cells 3x 3x 3

--------------------------------------- Iteration      1(   1)  ---------------------------------------

 eigenvalue-minimisations  :   456
 total energy-change (2. order) : 0.1028867E+01  (-0.3339882E+03)
 number of electron       8.0000000 magnetization
 augmentation part        8.0000000 magnetization

 Free energy of the ion-electron system (eV)
  alpha Z        PSCENC =         3.33880741
  Ewald energy   TEWEN  =      -227.98820643
  -Hartree energ DENC   =       -11.11484531
  -exchange      EXHF   =         0.00000000
  -V(xc)+E(xc)   XCENC  =       -18.63153637
  PAW double counting   =       176.24759923     -141.06103558
  entropy T*S    EENTRO =        -0.00000000
  eigenvalues    EBANDS =        14.10496457
  atomic energy  EATOM  =       206.13311910
  Solvation  Ediel_sol  =         0.00000000
  free energy    TOTEN  =         1.02886662 eV

  energy without entropy =        1.02886662  energy(sigma->0) =        1.02886662

[...]

 eigenvalue-minimisations  :   604
 total energy-change (2. order) :-0.1609358E+02  (-0.1585080E+02)
 number of electron       8.0000000 magnetization
 augmentation part        8.0000000 magnetization

[...]

 Broyden mixing:
  rms(total) = 0.43795E+00    rms(broyden)= 0.43795E+00
  rms(prec ) = 0.67579E+00
  weight for this iteration     100.00

[...]

 eigenvalues of (default mixing * dielectric matrix)
  average eigenvalue GAMMA=   2.4524
  2.4524

[...]

 eigenvalue-minimisations  :   604
 total energy-change (2. order) : 0.1775435E-01  (-0.3009192E-02)
 number of electron       7.9999999 magnetization
 augmentation part       -0.4796663 magnetization

[...]

 Broyden mixing:
  rms(total) = 0.48284E-02    rms(broyden)= 0.48284E-02
  rms(prec ) = 0.51317E-02
  weight for this iteration     100.00

 eigenvalues of (default mixing * dielectric matrix)
  average eigenvalue GAMMA=   2.0958
  0.9951  2.6782  2.6782  2.0315

[...]

--------------------------------------- Iteration      1(  10)  ---------------------------------------

 eigenvalue-minimisations  :   336
 total energy-change (2. order) :-0.1752425E-05  (-0.2931504E-06)
 number of electron       7.9999999 magnetization
 augmentation part       -0.4804709 magnetization

 Free energy of the ion-electron system (eV)
  alpha Z        PSCENC =         3.33880741
  Ewald energy   TEWEN  =      -227.98820643
  -Hartree energ DENC   =       -12.90349960
  -exchange      EXHF   =         0.00000000
  -V(xc)+E(xc)   XCENC  =       -18.23007024
  PAW double counting   =       791.70928098     -756.67805851
  entropy T*S    EENTRO =        -0.00000000
  eigenvalues    EBANDS =        -0.83771116
  atomic energy  EATOM  =       206.13311910
  Solvation  Ediel_sol  =         0.00000000
  free energy    TOTEN  =       -15.45633845 eV

  energy without entropy =      -15.45633845  energy(sigma->0) =      -15.45633845

 average (electrostatic) potential at core
  the test charge radii are     0.9892
  (the norm of the test charge is              1.0000)
       1 -83.8943       2 -83.8943

 E-fermi :   3.5836     XC(G=0):  -9.5184     alpha+bet :-11.8943

 k-point     1 :       0.5010    0.3120    0.6870
  band No.  band energies     occupation
      1      -2.9394      2.00000
      2      -1.4583      2.00000
      3       1.4705      2.00000
      4       2.5034      2.00000
      5       9.1212      0.00000
      6       9.3751      0.00000
      7      11.1948      0.00000
      8      11.6231      0.00000
      9      13.8858      0.00000
     10      16.6585      0.00000
     11      17.6029      0.00000
     12      19.7388      0.00000

[...]

 k-point    19 :       0.5010    0.3020    0.6970
  band No.  band energies     occupation
      1      -2.8201      2.00000
      2      -1.5440      2.00000
      3       1.4600      2.00000
      4       2.3659      2.00000
      5       9.2227      0.00000
      6       9.5076      0.00000
      7      10.9957      0.00000
      8      11.4246      0.00000
      9      14.2825      0.00000
     10      16.6514      0.00000
     11      17.6931      0.00000
     12      19.9388      0.00000

 soft charge-density along one line, spin component           1
         0         1         2         3         4         5         6         7         8         9
x     8.4805    0.0000    1.9369    0.0000    0.2694    0.0000    0.0705    0.0000    0.0041    0.0000
x    -0.0011   -0.0000   -0.0005   -0.0000    0.0000   -0.0000    0.0000    0.0000    0.0000   -0.0000
x    -0.0000   -0.0000   -0.0000   -0.0000    0.0000    0.0000
y     8.4805    0.0000    1.9369    0.0000    0.2694    0.0000    0.0705    0.0000    0.0041    0.0000
y    -0.0011   -0.0000   -0.0005   -0.0000    0.0000   -0.0000    0.0000    0.0000    0.0000   -0.0000
y    -0.0000   -0.0000   -0.0000   -0.0000    0.0000    0.0000
z     8.4805    0.0000    1.9369    0.0000    0.2694    0.0000    0.0705    0.0000    0.0041    0.0000
z    -0.0011   -0.0000   -0.0005   -0.0000    0.0000   -0.0000    0.0000    0.0000    0.0000   -0.0000
z    -0.0000   -0.0000   -0.0000   -0.0000    0.0000    0.0000
 total charge-density along one line
x     8.0000    0.0000    1.6468    0.0000    0.2694    0.0000    0.1412    0.0000    0.0235   -0.0000
x    -0.0023   -0.0000   -0.0005   -0.0000   -0.0003   -0.0000    0.0000   -0.0000    0.0001   -0.0000
x    -0.0000   -0.0000    0.0000    0.0000   -0.0000    0.0000    0.0000    0.0000    0.0000    0.0000
x     0.0000    0.0000   -0.0000   -0.0000   -0.0000   -0.0000    0.0000    0.0000   -0.0000   -0.0000
x     0.0000   -0.0000   -0.0000    0.0000   -0.0000    0.0000   -0.0000   -0.0000    0.0000    0.0000
y     8.0000    0.0000    1.6468    0.0000    0.2694    0.0000    0.1412    0.0000    0.0235   -0.0000
y    -0.0023   -0.0000   -0.0005    0.0000   -0.0003   -0.0000    0.0000   -0.0000    0.0001    0.0000
y    -0.0000    0.0000    0.0000   -0.0000   -0.0000    0.0000    0.0000   -0.0000    0.0000    0.0000
y     0.0000    0.0000   -0.0000    0.0000   -0.0000   -0.0000    0.0000   -0.0000   -0.0000   -0.0000
y     0.0000    0.0000   -0.0000    0.0000   -0.0000    0.0000   -0.0000    0.0000    0.0000   -0.0000
z     8.0000    0.0000    1.6468    0.0000    0.2694    0.0000    0.1412   -0.0000    0.0235   -0.0000
z    -0.0023   -0.0000   -0.0005   -0.0000   -0.0003   -0.0000    0.0000   -0.0000    0.0001   -0.0000
z    -0.0000   -0.0000    0.0000    0.0000   -0.0000    0.0000    0.0000   -0.0000   -0.0000    0.0000
z     0.0000   -0.0000   -0.0000   -0.0000   -0.0000   -0.0000   -0.0000   -0.0000   -0.0000   -0.0000
z     0.0000   -0.0000   -0.0000   -0.0000   -0.0000   -0.0000   -0.0000   -0.0000    0.0000   -0.0000

------------------------ aborting loop because EDIFF is reached ----------------------------------------

 total charge

# of ion       s       p       d       tot
    1        0.817   0.843   0.000   1.659
    2        0.817   0.843   0.000   1.659
tot          1.633   1.685   0.000   3.319

  FORCE on cell =-STRESS in cart. coord.  units (eV):
  Direction    XX          YY          ZZ          XY          YZ          ZX
  Alpha Z     3.33881     3.33881     3.33881
  Ewald     -75.99608   -75.99616   -75.99607     0.00001    -0.00000     0.00000
  Hartree     4.30160     4.30160     4.30160     0.00000     0.00000     0.00000
  E(xc)     -24.93043   -24.93043   -24.93043    -0.00000    -0.00000    -0.00000
  Local     -27.66025   -27.66023   -27.66023     0.00000     0.00001     0.00001
  n-local    78.89690    78.44042    78.16358    -1.50024     1.12566    -1.56352
  augment   -12.22656   -12.22656   -12.22658    -0.00000    -0.00001    -0.00001
  Kinetic    53.21447    51.37772    48.31338     1.02654    -3.97035     0.99305
  Fock        0.00000     0.00000     0.00000     0.00000     0.00000     0.00000
  Total      -3.70410    -3.70410    -3.70410    -0.00000    -0.00000    -0.00000
  in kB    -147.15326  -147.15338  -147.15322    -0.00000    -0.00000    -0.00000

 VOLUME and BASIS-vectors are now :
  energy-cutoff  :      600.00
  volume of cell :       40.33
      direct lattice vectors                 reciprocal lattice vectors
     3.333573000  0.000000000  1.924639000     0.299978432 -0.106058350  0.000000000
     1.111191000  3.142924000  1.924639000     0.000000000  0.318175050  0.000000000
     0.000000000  0.000000000  3.849278000    -0.149989216 -0.106058350  0.259788979

  length of vectors
     3.849278403  3.849279412  3.849278000     0.318175161  0.318175050  0.318175190

 FORCES acting on ions
    electron-ion (+dipol)            ewald-force                    non-local-force                 convergence-correction
   0.475E-05 0.217E-04 0.242E-06   -.892E-05 -.418E-04 -.429E-15   0.174E-17 -.301E-16 -.546E-16   0.296E-08 0.143E-07 -.199E-09
   -.475E-05 -.217E-04 -.242E-06   0.892E-05 0.418E-04 0.408E-15   0.145E-16 0.451E-16 0.664E-16   -.296E-08 -.143E-07 0.199E-09
   -.363E-14 0.884E-14 -.143E-13   -.341E-15 0.468E-16 -.212E-16   0.162E-16 0.150E-16 0.119E-16   -.176E-14 -.101E-14 -.192E-14

 POSITION                                       TOTAL-FORCE (eV/Angst)
      3.88917      2.75006      6.73624        -0.000000     -0.000000      0.000000
      0.55560      0.39287      0.96232         0.000000      0.000000     -0.000000
    total drift:                               -0.000000      0.000000     -0.000000

  FREE ENERGIE OF THE ION-ELECTRON SYSTEM (eV)
  free  energy   TOTEN  =       -15.45633845 eV

  energy  without entropy=      -15.45633845  energy(sigma->0) =      -15.45633845

 writing wavefunctions

 total charge

# of ion       s       p       d       tot
    1        0.817   0.843   0.000   1.659
    2        0.817   0.843   0.000   1.659
tot          1.633   1.685   0.000   3.319